NAME: line_40_7
TYPE: TSP
COMMENT: line_40_7
DIMENSION: 40
EDGE_WEIGHT_TYPE: EUC_2D
NODE_COORD_SECTION
1 0.0 281.0
2 0.0 281.0
3 0.0 19.0
4 0.0 26.0
5 0.0 279.0
6 0.0 118.0
7 0.0 80.0
8 0.0 20.0
9 0.0 8.0
10 0.0 374.0
11 0.0 20.0
12 0.0 213.0
13 0.0 110.0
14 0.0 269.0
15 0.0 138.0
16 0.0 226.0
17 0.0 8.0
18 0.0 56.0
19 0.0 173.0
20 0.0 108.0
21 0.0 103.0
22 0.0 306.0
23 0.0 41.0
24 0.0 91.0
25 0.0 383.0
26 0.0 15.0
27 0.0 117.0
28 0.0 287.0
29 0.0 338.0
30 0.0 153.0
31 0.0 340.0
32 0.0 155.0
33 0.0 7.0
34 0.0 312.0
35 0.0 198.0
36 0.0 381.0
37 0.0 68.0
38 0.0 246.0
39 0.0 15.0
40 0.0 217.0
